p cnf 116 404
1 -2 -3 0
-1 2 -3 0
1 2 3 0
-1 -2 3 0
5 3 0
5 4 0
-3 -4 -5 0
7 -1 0
7 -4 0
1 4 -7 0
-8 6 0
-8 7 0
-6 -7 8 0
12 -10 0
12 11 0
10 -11 -12 0
13 9 0
13 12 0
-9 -12 -13 0
-14 8 0
-14 13 0
-8 -13 14 0
15 3 0
15 14 0
-3 -14 -15 0
17 6 0
17 -10 0
-6 10 -17 0
-18 -16 0
-18 -17 0
16 17 18 0
-20 18 0
-20 -19 0
-18 19 20 0
4 -21 -22 0
-4 21 -22 0
4 21 22 0
-4 -21 22 0
20 22 -23 0
-20 -22 -23 0
20 -22 23 0
-20 22 23 0
24 -15 0
24 -23 0
15 23 -24 0
-5 -24 -25 0
5 24 -25 0
-5 24 25 0
5 -24 25 0
26 12 0
26 3 0
-12 -3 -26 0
-27 -26 0
-27 21 0
26 -21 27 0
-28 -22 -29 0
28 22 -29 0
-28 22 29 0
28 -22 29 0
27 -29 -30 0
-27 29 -30 0
27 29 30 0
-27 -29 30 0
-31 11 0
-31 -3 0
-11 3 31 0
32 30 0
32 -31 0
-30 31 -32 0
-33 -25 0
-33 32 0
25 -32 33 0
-34 7 0
-34 -17 0
-7 17 34 0
34 -7 -35 0
-34 7 -35 0
34 7 35 0
-34 -7 35 0
-36 -28 0
-36 -8 0
28 8 36 0
-37 -35 0
-37 36 0
35 -36 37 0
-38 34 0
-38 -37 0
-34 37 38 0
-39 -7 0
-39 8 0
7 -8 39 0
40 26 0
40 9 0
-26 -9 -40 0
40 36 -41 0
-40 -36 -41 0
40 -36 41 0
-40 36 41 0
-42 -7 0
-42 -19 0
7 19 42 0
41 -42 -43 0
-41 42 -43 0
41 42 43 0
-41 -42 43 0
44 39 0
44 -43 0
-39 43 -44 0
-45 38 0
-45 44 0
-38 -44 45 0
-36 46 -47 0
36 -46 -47 0
-36 -46 47 0
36 46 47 0
-48 45 0
-48 47 0
-45 -47 48 0
-49 -6 0
-49 36 0
6 -36 49 0
-48 -49 -50 0
48 49 -50 0
-48 49 50 0
48 -49 50 0
52 -16 0
52 -51 0
16 51 -52 0
53 -27 0
53 -52 0
27 52 -53 0
54 -29 0
54 53 0
29 -53 -54 0
-21 -54 -55 0
21 54 -55 0
-21 54 55 0
21 -54 55 0
56 46 0
56 -19 0
-46 19 -56 0
56 -34 -57 0
-56 34 -57 0
56 34 57 0
-56 -34 57 0
55 -57 -58 0
-55 57 -58 0
55 57 58 0
-55 -57 58 0
53 27 -59 0
-53 -27 -59 0
53 -27 59 0
-53 27 59 0
59 -60 0
-59 -60 0
19 -21 -61 0
-19 21 -61 0
19 21 61 0
-19 -21 61 0
-62 4 0
-62 -61 0
-4 61 62 0
63 22 0
63 -27 0
-22 27 -63 0
-64 -62 0
-64 63 0
62 -63 64 0
-60 -64 -65 0
60 64 -65 0
-60 64 65 0
60 -64 65 0
-58 -65 -66 0
58 65 -66 0
-58 65 66 0
58 -65 66 0
-50 -66 -67 0
50 66 -67 0
-50 66 67 0
50 -66 67 0
68 1 0
68 13 0
-1 -13 -68 0
69 -29 0
69 28 0
29 -28 -69 0
51 -69 -70 0
-51 69 -70 0
51 69 70 0
-51 -69 70 0
-71 -16 0
-71 28 0
16 -28 71 0
72 -14 0
72 -71 0
14 71 -72 0
-73 70 0
-73 -72 0
-70 72 73 0
-74 -71 0
-74 34 0
71 -34 74 0
75 -74 0
75 -3 0
74 3 -75 0
-76 -75 0
-76 -21 0
75 21 76 0
-77 -73 0
-77 76 0
73 -76 77 0
78 -19 0
78 -12 0
19 12 -78 0
-79 -10 0
-79 28 0
10 -28 79 0
-78 -79 -80 0
78 79 -80 0
-78 79 80 0
78 -79 80 0
-77 80 -81 0
77 -80 -81 0
-77 -80 81 0
77 80 81 0
-82 68 0
-82 -81 0
-68 81 82 0
-83 69 0
-83 56 0
-69 -56 83 0
63 21 -84 0
-63 -21 -84 0
63 -21 84 0
-63 21 84 0
-85 -84 0
-85 -20 0
84 20 85 0
-86 -83 0
-86 85 0
83 -85 86 0
-87 -69 0
-87 -22 0
69 22 87 0
-88 86 0
-88 -87 0
-86 87 88 0
-89 82 0
-89 88 0
-82 -88 89 0
19 16 -90 0
-19 -16 -90 0
19 -16 90 0
-19 16 90 0
91 12 0
91 -90 0
-12 90 -91 0
-11 -1 -92 0
11 1 -92 0
-11 1 92 0
11 -1 92 0
94 93 0
94 59 0
-93 -59 -94 0
95 92 0
95 -94 0
-92 94 -95 0
-96 -91 0
-96 -95 0
91 95 96 0
97 89 0
97 96 0
-89 -96 -97 0
98 -67 0
98 97 0
67 -97 -98 0
33 -98 -99 0
-33 98 -99 0
33 98 99 0
-33 -98 99 0
-100 -17 0
-100 6 0
17 -6 100 0
21 12 -101 0
-21 -12 -101 0
21 -12 101 0
-21 12 101 0
102 101 0
102 52 0
-101 -52 -102 0
-103 100 0
-103 102 0
-100 -102 103 0
61 -13 -104 0
-61 13 -104 0
61 13 104 0
-61 -13 104 0
105 -103 0
105 -104 0
103 104 -105 0
106 7 0
106 -53 0
-7 53 -106 0
107 -20 0
107 106 0
20 -106 -107 0
108 -105 0
108 -107 0
105 107 -108 0
-99 -108 -109 0
99 108 -109 0
-99 108 109 0
99 -108 109 0
9 -71 -110 0
-9 71 -110 0
9 71 110 0
-9 -71 110 0
-111 -1 0
-111 -19 0
1 19 111 0
41 111 -112 0
-41 -111 -112 0
41 -111 112 0
-41 111 112 0
113 -106 0
113 -61 0
106 61 -113 0
114 112 0
114 113 0
-112 -113 -114 0
115 -110 0
115 114 0
110 -114 -115 0
-116 -109 0
-116 115 0
109 -115 116 0
24 -56 -2 0
80 -112 -79 11 109 -103 0
33 68 -17 102 32 0
-91 -116 -77 97 99 114 0
63 111 107 0
-3 105 0
-111 76 -37 -34 17 -14 0
-74 73 29 0
2 -17 -72 0
-68 -65 0
100 28 -30 35 0
-114 88 -57 -61 77 0
-43 86 38 21 70 -35 0
8 107 0
24 -101 0
-55 -99 89 77 0
32 -40 78 0
5 7 96 -78 41 -81 0
60 62 55 -9 0
-91 -58 0
-19 71 -85 0
-23 96 -26 19 -109 0
48 67 0
73 -50 17 0
48 -64 65 0
-25 -103 -36 -66 15 1 0
-26 -55 0
-13 -105 -23 0
42 -82 0
-70 57 38 0
-57 116 -75 -93 109 108 0
-6 103 84 0
40 81 0
60 81 34 40 109 0
88 -21 -68 -72 -45 -106 0
64 -96 29 10 0
-83 -107 74 5 -32 104 0
-102 -48 -68 -70 0
-54 -44 -80 46 0
27 -70 0
64 -68 -10 0
5 -97 31 13 0
-48 -54 -26 -16 0
-68 -72 -36 0
-63 4 0
25 76 -88 2 82 0
-4 20 -6 49 99 13 0
-111 47 -75 51 0
92 91 82 45 0
-27 50 0
62 98 -109 40 11 0
-63 -66 -51 83 107 -69 0
98 -109 62 -49 0
38 44 -47 92 -109 113 0
64 33 115 90 0
107 92 84 2 0
-5 28 11 22 -96 0
102 -76 63 -18 -75 0
98 104 0
-48 -5 76 107 -63 0
65 3 -62 68 -74 0
-108 -63 109 83 0
-10 -46 95 72 0
2 44 -88 109 -36 54 0
-66 -40 0
-106 -1 -100 24 0
-61 -83 82 50 15 0
116 0
